NAME : ManP-20-2.8612079.tour
COMMENT : Length = 8612079
COMMENT : Found by LKH [Keld Helsgaun] Thu Nov 29 13:06:55 2018
TYPE : TOUR
DIMENSION : 25
TOUR_SECTION
1
8
14
9
17
6
10
18
13
5
22
7
12
16
11
20
19
15
21
4
2
3
23
24
25
-1
EOF
